NAME : small sample
TYPE : CVRP
CAPACITY : 3
DIMENSION : 5
EDGE_WEIGHT_TYPE : EUC_2D
NODE_COORD_SECTION
1 0.0 0.0
2 2.0 1.0
3 1.0 -2.0
4 -4.0 1.0
5 -2.0 -3.0
DEMAND_SECTION
1 0
2 1
3 1
4 1
5 1
DEPOT_SECTION
 1
 -1
